--Link1--
%chk=molecule
%NProcShared=23
#B3LYP/6-31G* SCF=tight Test Pop=MK iop(6/33=2) iop(6/42=6) opt
# iop(6/50=1)

remark line goes here

0   1
    C   -1.4870000000        0.9650000000        2.3030000000     
    N   -1.7380000000        1.0280000000        3.7270000000     
    C   -3.0170000000        1.0100000000        3.8480000000     
    N   -3.7800000000        0.9970000000        2.6900000000     
    C   -2.9080000000        1.0080000000        1.7820000000     
    N   -0.5920000000        2.0640000000        1.8550000000     
    C   -1.2350000000        3.3570000000        1.5860000000     
    C   -1.8770000000        3.4310000000        0.1780000000     
    C   -3.2220000000        2.6930000000        0.0010000000     
    C   -3.1590000000        1.1900000000        0.3070000000     
    N   -3.5900000000        1.0400000000        5.1020000000     
    O   -3.5800000000        2.9030000000       -1.3490000000     
    O   -2.1350000000        4.7850000000       -0.1480000000     
    C   -5.0090000000        1.2350000000        5.3650000000     
    C    0.6510000000        2.1770000000        2.6290000000     
    C    1.5410000000        0.9220000000        2.5900000000     
    C    1.9630000000        0.5510000000        1.1590000000     
    C    2.8330000000       -0.7180000000        1.0930000000     
    C    3.2230000000       -1.1240000000       -0.3510000000     
    C    2.0140000000       -1.6740000000       -1.1400000000     
    N    4.2470000000       -2.1650000000       -0.2700000000     
    O    0.9760000000       -2.0140000000       -0.5730000000     
    C   -5.4340000000        2.7010000000        5.1810000000     
    C   -6.9350000000        2.9150000000        5.4360000000     
    C   -7.4010000000        4.3690000000        5.1880000000     
    N   -6.7340000000        5.3520000000        6.0550000000     
    C   -8.9320000000        4.5140000000        5.1860000000     
    O   -9.5430000000        4.6000000000        4.1240000000     
    H   -1.0490000000       -0.0020000000        2.0470000000     
    H   -1.9480000000        3.6090000000        2.3730000000     
    H   -0.4760000000        4.1410000000        1.6200000000     
    H   -1.1510000000        3.0530000000       -0.5460000000     
    H   -3.9890000000        3.1550000000        0.6260000000     
    H   -2.3650000000        0.7050000000       -0.2630000000     
    H   -4.0960000000        0.7020000000        0.0410000000     
    H   -2.9970000000        1.0020000000        5.9180000000     
    H   -3.2230000000        3.7580000000       -1.5680000000     
    H   -2.7520000000        5.1300000000        0.4810000000     
    H   -5.5870000000        0.5880000000        4.7030000000     
    H   -5.2230000000        0.9090000000        6.3830000000     
    H    1.2450000000        3.0060000000        2.2430000000     
    H    0.4260000000        2.4360000000        3.6650000000     
    H    2.4310000000        1.1050000000        3.1940000000     
    H    1.0310000000        0.0830000000        3.0630000000     
    H    1.0670000000        0.4090000000        0.5540000000     
    H    2.4990000000        1.3870000000        0.7100000000     
    H    3.7390000000       -0.5360000000        1.6710000000     
    H    2.3190000000       -1.5420000000        1.5920000000     
    H    3.6250000000       -0.2520000000       -0.8720000000     
    H    4.2410000000       -2.7420000000        0.5550000000     
    H   -4.8520000000        3.3320000000        5.8520000000     
    H   -5.1970000000        3.0250000000        4.1670000000     
    H   -7.4950000000        2.2540000000        4.7730000000     
    H   -7.1910000000        2.5930000000        6.4460000000     
    H   -7.0930000000        4.6280000000        4.1740000000     
    H   -8.9440000000        4.4940000000        7.1910000000     
    N   -9.5430000000        4.5680000000        6.3730000000     
    C  -10.9790000000        4.7140000000        6.5540000000     
    H  -11.5170000000        3.9130000000        6.0440000000     
    H  -11.2320000000        4.6780000000        7.6140000000     
    H  -11.3220000000        5.6670000000        6.1490000000     
    C    6.0920000000       -3.5930000000       -0.9870000000     
    C    5.1170000000       -2.4550000000       -1.2460000000     
    O    5.1360000000       -1.8510000000       -2.3160000000     
    H    6.7710000000       -3.7100000000       -1.8320000000     
    H    6.6890000000       -3.3920000000       -0.0970000000     
    H    5.5560000000       -4.5320000000       -0.8480000000     
    H    3.1030000000       -1.5860000000       -2.8230000000     
    N    2.1770000000       -1.7940000000       -2.4610000000     
    C    1.1590000000       -2.2920000000       -3.3730000000     
    H    1.5300000000       -2.2790000000       -4.3980000000     
    H    0.8850000000       -3.3180000000       -3.1200000000     
    H    0.2610000000       -1.6760000000       -3.3240000000     
    H   -6.2850000000        6.1120000000        5.5690000000     
    C   -5.8240000000        6.4710000000        8.0200000000     
    C   -6.6480000000        5.3580000000        7.3920000000     
    O   -7.2260000000        4.5410000000        8.1040000000     
    H   -5.8010000000        6.3620000000        9.1050000000     
    H   -4.7970000000        6.4410000000        7.6550000000     
    H   -6.2540000000        7.4450000000        7.7860000000     

glucosepane.gesp

glucosepane.gesp


